c Random generated cnf formula, satisfiable: true
p cnf 10 50
2 9 4 0
-3 -9 -8 0
-7 -5 -8 0
2 -7 -9 0
10 -7 6 0
-3 9 -1 0
-5 -2 3 0
10 7 6 0
2 1 9 0
7 3 8 0
-7 5 -3 0
-8 -9 -10 0
6 -10 -3 0
-3 1 -6 0
6 7 -4 0
5 8 7 0
-9 -5 -3 0
-4 6 10 0
-8 -7 -3 0
1 -4 5 0
-8 -9 -5 0
1 -6 -3 0
3 8 7 0
-10 -7 -8 0
6 -4 5 0
-9 -2 -5 0
9 -1 -5 0
-1 2 -3 0
5 4 -8 0
8 9 7 0
-3 10 -1 0
-5 8 -2 0
9 -1 7 0
-6 -4 -9 0
2 -8 9 0
-4 5 10 0
-1 -10 -5 0
8 -3 -10 0
3 -5 10 0
10 -5 -8 0
-8 10 6 0
2 -8 4 0
8 -2 -9 0
-10 7 -8 0
-6 2 -8 0
-6 -1 3 0
4 -6 1 0
-6 3 8 0
-5 -1 3 0
2 -7 -6 0
